db/data/168524602232851571914548313841532912535.z3.out
-------------------
2500.163488051
